78 300 151 159 167 190 168 186 157 163 161 151 179 188 197 180 183 156 161 155 152 189 198 172 178 155 190 167 192 158 177 182 166 152 191 157 192 158 193 200 171 153 175 174 165 171 178 172 151 163 177 178 151 200 175 180 154 164 197 171 172 198 152 162 200 193 169 165 150 186 189 196 163 163 194 178 159 171 200 160 